qbf_easy_train/easy_246_UNSAT.qdimacs
p cnf 22 53
a 11 20 14 0
e 1 2 3 4 5 6 7 8 9 10 12 13 15 16 17 18 19 21 22 0
-4 2 0
-4 -3 0
-2 3 4 0
1 4 -5 0
-1 -4 -5 0
1 -4 5 0
-1 4 5 0
3 6 -7 0
-3 -6 -7 0
3 -6 7 0
-3 6 7 0
8 9 -10 0
-8 -9 -10 0
8 -9 10 0
-8 9 10 0
-7 10 -11 0
7 -10 -11 0
-7 -10 11 0
7 10 11 0
13 -12 0
13 2 0
12 -2 -13 0
15 -2 0
15 -14 0
2 14 -15 0
-16 3 0
-16 15 0
-3 -15 16 0
17 -4 0
17 4 0
18 -4 0
18 -17 0
4 17 -18 0
19 -16 0
19 18 0
16 -18 -19 0
20 -13 0
20 19 0
13 -19 -20 0
-11 20 -21 0
11 -20 -21 0
-11 -20 21 0
11 20 21 0
5 21 -22 0
-5 -21 -22 0
5 -21 22 0
-5 21 22 0
15 -10 8 9 0
-16 -5 -19 -1 4 0
-10 -17 -3 20 0
18 -19 20 -15 17 -16 13 0
5 -10 8 0
22 0
