sat_easy_train/easy_246_UNSAT.dimacs
p cnf 146 492
-2 1 0
-2 1 0
-1 2 0
3 2 0
3 2 0
-2 -3 0
-4 -5 -6 0
4 5 -6 0
-4 5 6 0
4 -5 6 0
7 -3 0
7 6 0
3 -6 -7 0
-10 -3 0
-10 -9 0
3 9 10 0
8 10 -11 0
-8 -10 -11 0
8 -10 11 0
-8 10 11 0
12 7 0
12 11 0
-7 -11 -12 0
14 4 0
14 5 0
-4 -5 -14 0
6 -15 -16 0
-6 15 -16 0
6 15 16 0
-6 -15 16 0
-17 3 0
-17 6 0
-3 -6 17 0
-18 16 0
-18 17 0
-16 -17 18 0
19 14 0
19 18 0
-14 -18 -19 0
20 9 -21 0
-20 -9 -21 0
20 -9 21 0
-20 9 21 0
-19 21 -22 0
19 -21 -22 0
-19 -21 22 0
19 21 22 0
5 6 -23 0
-5 -6 -23 0
5 -6 23 0
-5 6 23 0
-24 -23 0
-24 -13 0
23 13 24 0
-24 -25 0
24 -25 0
-26 22 0
-26 25 0
-22 -25 26 0
-27 13 0
-27 -26 0
-13 26 27 0
29 28 0
29 3 0
-28 -3 -29 0
30 20 0
30 -8 0
-20 8 -30 0
30 17 -31 0
-30 -17 -31 0
30 -17 31 0
-30 17 31 0
29 31 -32 0
-29 -31 -32 0
29 -31 32 0
-29 31 32 0
33 18 0
33 32 0
-18 -32 -33 0
-34 27 0
-34 -33 0
-27 33 34 0
-12 -34 -35 0
12 34 -35 0
-12 34 35 0
12 -34 35 0
14 -15 -37 0
-14 15 -37 0
14 15 37 0
-14 -15 37 0
38 -36 0
38 37 0
36 -37 -38 0
38 15 -39 0
-38 -15 -39 0
38 -15 39 0
-38 15 39 0
40 -35 0
40 -39 0
35 39 -40 0
8 -41 0
-8 -41 0
40 -41 -42 0
-40 41 -42 0
40 41 42 0
-40 -41 42 0
43 -15 0
43 37 0
15 -37 -43 0
-10 -21 -44 0
10 21 -44 0
-10 21 44 0
10 -21 44 0
-47 -45 0
-47 -46 0
45 46 47 0
-48 -44 0
-48 47 0
44 -47 48 0
-43 -48 -49 0
43 48 -49 0
-43 48 49 0
43 -48 49 0
51 50 0
51 -1 0
-50 1 -51 0
52 47 0
52 -51 0
-47 51 -52 0
53 49 0
53 52 0
-49 -52 -53 0
-54 42 0
-54 -53 0
-42 53 54 0
-55 -45 0
-55 -37 0
45 37 55 0
-56 -3 0
-56 -50 0
3 50 56 0
57 -20 0
57 -50 0
20 50 -57 0
-9 -57 -58 0
9 57 -58 0
-9 57 58 0
9 -57 58 0
-59 -58 0
-59 4 0
58 -4 59 0
-56 59 -60 0
56 -59 -60 0
-56 -59 60 0
56 59 60 0
-55 60 -61 0
55 -60 -61 0
-55 -60 61 0
55 60 61 0
-63 62 0
-63 -50 0
-62 50 63 0
64 10 0
64 -24 0
-10 24 -64 0
65 -63 0
65 64 0
63 -64 -65 0
61 65 -66 0
-61 -65 -66 0
61 -65 66 0
-61 65 66 0
-38 24 -67 0
38 -24 -67 0
-38 -24 67 0
38 24 67 0
68 67 0
68 -37 0
-67 37 -68 0
-69 68 0
-69 22 0
-68 -22 69 0
70 51 0
70 -19 0
-51 19 -70 0
-71 -20 0
-71 44 0
20 -44 71 0
72 -70 0
72 -71 0
70 71 -72 0
-47 -63 -73 0
47 63 -73 0
-47 63 73 0
47 -63 73 0
74 72 0
74 -73 0
-72 73 -74 0
75 9 0
75 -74 0
-9 74 -75 0
-76 -24 0
-76 -1 0
24 1 76 0
-17 -59 -77 0
17 59 -77 0
-17 59 77 0
17 -59 77 0
-78 -13 0
-78 -77 0
13 77 78 0
78 46 -79 0
-78 -46 -79 0
78 -46 79 0
-78 46 79 0
9 20 -80 0
-9 -20 -80 0
9 -20 80 0
-9 20 80 0
80 21 -81 0
-80 -21 -81 0
80 -21 81 0
-80 21 81 0
-82 -79 0
-82 -81 0
79 81 82 0
83 -76 0
83 -82 0
76 82 -83 0
-75 -83 -84 0
75 83 -84 0
-75 83 84 0
75 -83 84 0
69 -84 -85 0
-69 84 -85 0
69 84 85 0
-69 -84 85 0
86 66 0
86 -85 0
-66 85 -86 0
-87 46 0
-87 63 0
-46 -63 87 0
-88 87 0
-88 -23 0
-87 23 88 0
-90 88 0
-90 -89 0
-88 89 90 0
91 -37 0
91 -46 0
37 46 -91 0
92 91 0
92 -47 0
-91 47 -92 0
-93 -90 0
-93 -92 0
90 92 93 0
49 -20 -94 0
-49 20 -94 0
49 20 94 0
-49 -20 94 0
-95 -6 0
-95 -62 0
6 62 95 0
-96 95 0
-96 87 0
-95 -87 96 0
97 94 0
97 -96 0
-94 96 -97 0
-99 28 0
-99 -98 0
-28 98 99 0
-100 -30 0
-100 99 0
30 -99 100 0
-101 -37 0
-101 -9 0
37 9 101 0
-100 -101 -102 0
100 101 -102 0
-100 101 102 0
100 -101 102 0
103 -97 0
103 102 0
97 -102 -103 0
-36 -4 -104 0
36 4 -104 0
-36 4 104 0
36 -4 104 0
-105 47 0
-105 104 0
-47 -104 105 0
-105 15 -106 0
105 -15 -106 0
-105 -15 106 0
105 15 106 0
107 -43 0
107 -70 0
43 70 -107 0
106 -107 -108 0
-106 107 -108 0
106 107 108 0
-106 -107 108 0
-109 13 0
-109 -48 0
-13 48 109 0
-110 -98 0
-110 -80 0
98 80 110 0
111 58 0
111 -110 0
-58 110 -111 0
-112 -109 0
-112 -111 0
109 111 112 0
113 -72 0
113 -112 0
72 112 -113 0
114 113 0
114 18 0
-113 -18 -114 0
-115 108 0
-115 114 0
-108 -114 115 0
-106 99 -116 0
106 -99 -116 0
-106 -99 116 0
106 99 116 0
117 115 0
117 -116 0
-115 116 -117 0
118 103 0
118 -117 0
-103 117 -118 0
-119 -93 0
-119 -118 0
93 118 119 0
-86 -119 -120 0
86 119 -120 0
-86 119 120 0
86 -119 120 0
121 6 0
121 -14 0
-6 14 -121 0
-49 121 -122 0
49 -121 -122 0
-49 -121 122 0
49 121 122 0
28 -44 -123 0
-28 44 -123 0
28 44 123 0
-28 -44 123 0
124 104 0
124 -18 0
-104 18 -124 0
125 123 0
125 124 0
-123 -124 -125 0
-67 -125 -126 0
67 125 -126 0
-67 125 126 0
67 -125 126 0
-127 28 0
-127 -37 0
-28 37 127 0
128 104 0
128 -46 0
-104 46 -128 0
-127 -128 -129 0
127 128 -129 0
-127 128 129 0
127 -128 129 0
130 -126 0
130 129 0
126 -129 -130 0
131 10 0
131 -56 0
-10 56 -131 0
-132 43 0
-132 -28 0
-43 28 132 0
133 -131 0
133 -132 0
131 132 -133 0
-134 130 0
-134 133 0
-130 -133 134 0
135 122 0
135 -134 0
-122 134 -135 0
-136 104 0
-136 73 0
-104 -73 136 0
-137 -101 0
-137 21 0
101 -21 137 0
-138 -136 0
-138 137 0
136 -137 138 0
-139 -110 0
-139 -58 0
110 58 139 0
106 -139 -140 0
-106 139 -140 0
106 139 140 0
-106 -139 140 0
-141 -138 0
-141 -140 0
138 140 141 0
142 51 0
142 -37 0
-51 37 -142 0
143 -141 0
143 -142 0
141 142 -143 0
144 135 0
144 143 0
-135 -143 -144 0
145 120 0
145 -144 0
-120 144 -145 0
54 -145 -146 0
-54 145 -146 0
54 145 146 0
-54 -145 146 0
45 -12 0
-10 -60 -15 51 68 -5 0
13 -82 125 -22 -85 0
-83 -98 58 -138 0
134 -38 0
-23 44 -34 39 112 -103 0
103 -20 12 -50 -48 114 0
-92 -121 0
-15 -40 -82 -145 83 104 0
88 61 36 -84 -62 35 0
-45 133 0
-77 94 118 33 0
-56 -59 30 -73 97 0
106 -145 71 12 -107 45 0
-80 -113 48 0
-80 -131 55 0
-139 -121 0
143 114 0
-70 18 124 -48 146 9 0
-95 -29 91 -30 75 62 0
-14 -140 25 100 80 0
96 -99 -116 92 -59 0
50 -15 0
-24 -67 0
-68 120 87 136 0
146 46 -134 0
24 -128 0
80 -23 0
-17 -56 104 -93 0
19 -111 108 120 0
136 -75 -15 -102 0
-24 -48 -85 83 0
134 -106 -49 -5 61 0
-1 69 0
-78 -125 -126 0
-22 115 107 0
66 118 -59 20 0
81 -19 -92 -120 32 0
83 56 0
-58 -23 -39 -90 0
24 -16 -19 100 107 0
-84 16 122 -6 0
-2 40 111 -55 0
-39 18 32 0
128 134 102 69 38 56 0
-107 81 -61 62 0
40 -125 -139 0
-45 -81 0
-11 117 -115 0
35 106 0
-102 -95 137 -33 -130 114 0
8 -44 71 52 0
63 109 92 0
-117 89 0
18 -20 63 26 90 0
-72 15 81 52 0
84 55 30 0
33 61 -44 -10 0
-82 45 0
123 -99 -32 -31 90 0
8 5 19 -142 110 69 0
51 104 0
-133 143 6 -118 134 0
-110 101 0
146 0
